(assert (forall ((pkt_0_4_6_0  Int  )(state_group_0_state_0_5_7_0  Int  )(state_group_0_state_1_6_8_0  Int  )) (let ((_n0 state_group_0_state_1_6_8_0 ))
(let ((_n1 state_group_0_state_0_5_7_0 ))
(let ((_n2 true ))
(let ((_n3 (+   _n1   (ite  _n2  1 0) ) ))
(let ((_n4 (ite (=  _n0  0)  _n3   _n1  ) ))
(let ((_n5 pkt_0_4_6_0 ))
(let ((_n6 (=   _n5   (ite  _n2  1 0) ) ))
(let ((_n7 false ))
(let ((_n8 (ite (=  _n5  1)  (ite  _n7  1 0)   _n0  ) ))
(let ((_n9 (=   _n8   (ite  _n7  1 0) ) ))
(let ((_n10 (ite (=  _n5  1)  _n7   _n9  ) ))
(let ((_n11 (not  _n10 ) ))
(let ((_n12 (or   _n11   _n6 ) ))
(let ((_n13 999 ))
(let ((_n14 (ite  _n12   (ite  _n7  1 0)   _n5  ) ))
(let ((_n15 (-  _n14 )))
(let ((_n16 (ite  _n12   (ite  _n7  1 0)   _n1  ) ))
(let ((_n17 (+   _n16   _n15 ) ))
(let ((_n18 (<   _n17   _n13 ) ))
(let ((_n19 (ite  _n12   _n7   _n18  ) ))
(let ((_n20 (or   _n19   _n12 ) ))
(let ((_n21 1000 ))
(let ((_n22 (ite  _n20   (ite  _n7  1 0)   _n21  ) ))
(let ((_n23 (ite  _n20   (ite  _n7  1 0)   _n5  ) ))
(let ((_n24 (+   _n23   _n22 ) ))
(let ((_n25 (ite  _n20   (ite  _n7  1 0)   _n24  ) ))
(let ((_n26 (ite  _n20   _n1   (ite  _n7  1 0)  ) ))
(let ((_n27 (+   _n26   _n25 ) ))
(let ((_n28 (not  _n19 ) ))
(let ((_n29 (or   _n28   _n12 ) ))
(let ((_n30 (not  _n29 ) ))
(let ((_n31 (+   _n1   (ite  _n30  1 0) ) ))
(let ((_n32 (ite (=  (ite  _n19  1 0)  1)  _n31   _n27  ) ))
(let ((_n33 (ite (=  (ite  _n10  1 0)  1)  _n32   _n1  ) ))
(let ((_n34 (ite (=  _n5  1)  _n5   (ite  _n7  1 0)  ) ))
(let ((_n35 (ite (=  _n5  1)  _n0   (ite  _n7  1 0)  ) ))
(let ((_n36 (+   _n35   _n34 ) ))
(let ((_n37 (=   _n36   (ite  _n2  1 0) ) ))
(let ((_n38 (not  _n37 ) ))
(let ((_n39 (and   _n6   _n38 ) ))
(let ((_n40 (not  _n6 ) ))
(let ((_n41 (or   _n39   _n40 ) ))
(let ((_n42 (ite  _n41   (ite  _n7  1 0)   _n5  ) ))
(let ((_n43 (+   _n1   _n42 ) ))
(let ((_n44 (and   _n39   _n6 ) ))
(let ((_n45 (ite  _n44   _n5   (ite  _n7  1 0)  ) ))
(let ((_n46 (-  _n45 )))
(let ((_n47 (+   (ite  _n44  1 0)   _n46 ) ))
(let ((_n48 (ite  _n44   _n47   (ite  _n7  1 0)  ) ))
(let ((_n49 (+   _n1   _n48 ) ))
(let ((_n50 (ite (=  (ite  _n39  1 0)  1)  _n49   _n43  ) ))
(let ((_n51 (ite (=  (ite  _n6  1 0)  1)  _n50   _n33  ) ))
(let ((_n52 (=   _n51   _n4 ) ))
(let ((_n54 (ite (=  _n1  999)  (ite  _n2  1 0)   _n0  ) ))
(let ((_n55 (ite (=  _n0  0)  _n54   _n0  ) ))
(let ((_n56 (not  _n20 ) ))
(let ((_n57 (+   (ite  _n56  1 0)   _n23 ) ))
(let ((_n58 (ite  _n20   (ite  _n7  1 0)   _n57  ) ))
(let ((_n59 (+   _n0   _n58 ) ))
(let ((_n60 (ite (=  (ite  _n19  1 0)  1)  _n0   _n59  ) ))
(let ((_n61 (ite (=  (ite  _n10  1 0)  1)  _n60   _n0  ) ))
(let ((_n62 (ite (=  (ite  _n6  1 0)  1)  _n0   _n61  ) ))
(let ((_n63 (=   _n62   _n55 ) ))
(implies  (and (and (>= state_group_0_state_1_6_8_0 0) (< state_group_0_state_1_6_8_0 1024 ))  (and (and (>= state_group_0_state_0_5_7_0 0) (< state_group_0_state_0_5_7_0 1024 ))  (and (>= pkt_0_4_6_0 0) (< pkt_0_4_6_0 1024 )) ) )   (and  _n52  _n63 )  ))))))))))))))))))))))))))))))))))))))))))))))))))))))))))))))))))
(check-sat)
(get-model)
(exit)